
maximize cost: 50 x2 + 47 x3 + 46 x4 + 45 x5
 + 44 x6 + 45 xe + 47 xf + 47 x10 + 47 x11
 + 46 x12 + 46 x13 + 48 x14 + 25 x23 + 22 x24
 + 23 x25 + 20 x26 + 23 x27 + 20 x28 + 26 x29
 + 23 x2a + 25 x2b + 22 x2c + 28 x2d + 25 x2e
 + 29 x2f + 26 x30 + 1 x31 + 2 x32 + 3 x33
 + 16 x37 + 15 x38 + 16 x43 + 15 x44

subject to

z = 0


o = 1


+1 x1 = +1



+1 x38 +1 x44 = +1



+1 x1 -1 x2 -1 x3 -1 x4 -1 x5 -1 x6 = +0

+1 x2 +1 x3 +1 x4 +1 x5 +1 x6 -1 xc = +0

-1 x10 -1 x11 -1 x12 -1 x13 -1 x14 +1 xc -1 xe -1 xf
= +0

-1 x23 -1 x24 +1 xe = +0

-1 x25 -1 x26 +1 xf = +0

+1 x10 -1 x27 -1 x28 = +0

+1 x11 -1 x29 -1 x2a = +0

+1 x12 -1 x2b -1 x2c = +0

+1 x13 -1 x2d -1 x2e = +0

+1 x14 -1 x2f -1 x30 = +0

+1 x23 +1 x25 +1 x27 +1 x29 +1 x2b +1 x2d +1 x2f -1 x31
= +0

+1 x24 +1 x26 +1 x28 +1 x2a +1 x2c +1 x2e +1 x30 -1 x32
= +0

+1 x31 +1 x32 -1 x33 = +0

+1 x33 -1 x37 -1 x38 = +0

+1 x37 -1 x42 +1 x43 = +0

+1 x42 -1 x43 -1 x44 = +0



-1 x10 -1 x11 -1 x12 -1 x13 -1 x14 -1 xe -1 xf <= +0

-1 xc <= +0

-1 x33 <= +0

-1 x37 -1 x43 <= +0




-3 x10 -3 x11 -3 x12 -3 x13 -3 x14 +1 x33 +1 x37 +1 x43
-3 xe -3 xf <= +0

-2 x33 +1 x37 +1 x43 <= +0

-2 x10 -2 x11 -2 x12 -2 x13 -2 x14 +1 x37 +1 x43 -2 xe
-2 xf <= +0










general
z
o
x1
x2
x3
x4
x5
x6
xc
xe
xf
x10
x11
x12
x13
x14
x23
x24
x25
x26
x27
x28
x29
x2a
x2b
x2c
x2d
x2e
x2f
x30
x31
x32
x33
x37
x38
x42
x43
x44

end



